70 721
1 9
1 10
1 11
1 16
1 20
1 22
1 23
1 25
1 26
1 29
1 31
1 34
1 37
1 45
1 48
1 49
1 50
1 52
1 54
1 55
1 62
1 64
1 65
1 66
1 67
2 4
2 7
2 11
2 18
2 19
2 20
2 22
2 23
2 30
2 32
2 35
2 37
2 38
2 40
2 41
2 42
2 48
2 49
2 52
2 56
2 65
2 67
2 69
3 5
3 7
3 9
3 20
3 27
3 28
3 29
3 36
3 39
3 40
3 41
3 43
3 46
3 49
3 50
3 54
3 60
3 61
3 64
3 69
4 10
4 13
4 14
4 15
4 20
4 21
4 23
4 24
4 25
4 26
4 34
4 37
4 40
4 41
4 45
4 49
4 50
4 52
4 53
4 54
4 57
4 63
4 66
5 6
5 7
5 20
5 22
5 23
5 24
5 25
5 28
5 30
5 41
5 42
5 43
5 44
5 45
5 47
5 48
5 52
5 54
5 57
5 64
5 65
5 66
5 67
5 70
6 8
6 27
6 28
6 31
6 34
6 42
6 43
6 47
6 55
6 58
6 59
6 64
6 65
6 68
6 69
7 12
7 17
7 19
7 21
7 27
7 31
7 35
7 43
7 47
7 51
7 60
7 63
8 11
8 18
8 20
8 27
8 28
8 35
8 39
8 42
8 43
8 45
8 46
8 48
8 50
8 51
8 68
9 15
9 24
9 28
9 33
9 34
9 38
9 43
9 44
9 47
9 51
9 56
9 57
9 63
9 68
9 70
10 11
10 12
10 16
10 17
10 24
10 26
10 30
10 35
10 43
10 51
10 54
10 55
10 56
10 57
10 60
10 62
10 65
10 70
11 13
11 19
11 20
11 22
11 35
11 39
11 40
11 41
11 43
11 44
11 45
11 47
11 53
11 55
11 56
11 57
11 59
11 65
11 67
12 14
12 15
12 21
12 24
12 33
12 35
12 36
12 38
12 39
12 43
12 46
12 47
12 51
12 53
12 54
12 55
12 57
12 58
12 59
12 60
12 61
12 65
12 67
13 16
13 20
13 23
13 25
13 37
13 41
13 53
13 55
13 56
13 57
13 60
13 61
13 66
13 68
13 70
14 15
14 17
14 18
14 20
14 22
14 34
14 39
14 42
14 47
14 53
15 16
15 19
15 20
15 26
15 31
15 40
15 41
15 47
15 51
15 53
15 55
15 59
15 60
15 61
15 62
15 66
15 69
15 70
16 20
16 21
16 22
16 24
16 26
16 33
16 34
16 35
16 38
16 39
16 43
16 44
16 45
16 47
16 49
16 51
16 53
16 55
16 59
16 64
16 65
17 19
17 20
17 21
17 27
17 30
17 43
17 44
17 47
17 52
17 63
17 68
18 20
18 25
18 27
18 28
18 31
18 33
18 36
18 39
18 45
18 48
18 50
18 51
18 52
18 58
18 59
18 63
18 65
18 69
19 21
19 24
19 27
19 28
19 31
19 38
19 42
19 54
19 58
19 64
19 65
19 68
19 69
20 21
20 27
20 28
20 30
20 33
20 34
20 45
20 46
20 49
20 50
20 51
20 52
20 58
20 59
20 61
20 63
20 66
20 68
20 69
21 24
21 25
21 27
21 29
21 31
21 39
21 44
21 45
21 57
21 59
21 63
21 68
21 69
21 70
22 40
22 45
22 47
22 53
22 54
22 55
22 56
22 57
22 60
22 63
22 64
22 70
23 27
23 28
23 29
23 32
23 37
23 39
23 42
23 43
23 46
23 55
23 57
23 60
23 61
23 62
23 64
23 66
23 70
24 30
24 31
24 35
24 37
24 39
24 47
24 64
24 70
25 27
25 33
25 48
25 49
25 50
25 52
25 59
25 62
25 68
26 30
26 37
26 41
26 42
26 44
26 45
26 48
26 52
26 57
26 67
26 70
27 28
27 29
27 35
27 37
27 45
27 52
27 55
27 56
27 58
27 59
27 62
27 64
27 69
28 31
28 33
28 35
28 41
28 43
28 53
28 55
28 57
28 62
29 31
29 39
29 42
29 43
29 44
29 46
29 51
29 52
29 54
29 55
29 56
29 57
29 59
29 61
29 64
29 65
29 69
29 70
30 32
30 33
30 36
30 43
30 47
30 50
30 56
30 57
30 59
30 64
30 65
31 32
31 35
31 38
31 40
31 42
31 44
31 45
31 53
31 54
31 55
31 59
31 63
31 66
31 69
32 34
32 42
32 44
32 45
32 48
32 49
32 58
32 59
32 62
32 67
32 69
33 38
33 39
33 40
33 45
33 49
33 51
33 66
34 35
34 38
34 43
34 44
34 46
34 48
34 50
34 56
34 59
34 60
34 63
34 64
34 67
35 36
35 41
35 42
35 51
35 56
35 58
35 60
35 62
35 64
35 68
35 70
36 39
36 40
36 41
36 45
36 48
36 58
36 61
36 63
36 64
36 69
37 39
37 40
37 44
37 46
37 47
37 49
37 50
37 53
37 55
37 60
37 65
37 66
37 67
37 70
38 39
38 45
38 51
38 58
38 61
38 66
38 69
38 70
39 41
39 43
39 44
39 47
39 55
39 63
39 65
40 42
40 43
40 45
40 48
40 50
40 54
40 56
40 59
40 61
40 65
40 70
41 42
41 48
41 52
41 53
41 57
41 58
41 59
41 62
41 68
42 51
42 52
42 55
42 58
42 63
42 64
42 70
43 45
43 46
43 47
43 49
43 50
43 55
43 57
43 61
43 65
43 67
43 69
44 47
44 52
44 53
44 54
44 57
44 58
44 61
44 65
44 66
44 70
45 48
45 49
45 51
45 54
45 55
45 58
45 60
45 67
45 69
46 48
46 51
46 58
46 62
46 65
46 67
46 68
46 70
47 48
47 51
47 53
47 57
47 58
47 64
47 67
47 69
48 57
48 64
48 65
48 66
48 70
49 52
49 53
49 58
49 62
49 66
49 67
49 68
50 53
50 62
50 64
50 65
50 67
51 61
51 63
51 65
51 69
52 53
52 54
52 57
52 59
52 61
52 62
52 64
53 56
53 65
53 66
53 67
53 70
54 58
54 61
54 66
54 67
54 69
55 56
55 57
55 58
55 60
55 64
55 68
56 58
56 61
56 65
56 66
56 69
57 61
57 62
57 64
57 66
57 70
58 68
58 69
58 70
59 60
59 65
59 68
60 63
60 68
61 63
62 63
62 64
62 65
62 67
62 70
63 66
64 70
65 66
65 68
66 69
68 69
